(set-logic LIA)
(synth-fun next ((brake Int) (distance Int) (speed Int) (throttle Int) (ignition Bool) (time Int) ) Int
	((Start Int) (Var Int) (StartBool Bool))
	((Start Int (
				 4
				 5
				 6
				 (ite StartBool Start Start)))

	(Var Int (
			 0
			 1
			 2
			 4
			 10
			 11
			 471
			 476
			 brake
			 distance
			 speed
			 throttle
			 time
			 (+ Var Var)						
			 (- Var Var)						
			 (* Var Var)))

	(StartBool Bool (
				 	 ignition
					(= Var Var)						
					(>= Var Var)						
					(<= Var Var)						
					(and StartBool StartBool)			
					(or  StartBool StartBool)				
					(not StartBool)))))

(constraint (= (next 0 0 6 0 true 1071 ) 5))
(constraint (= (next 0 1 6 0 true 143 ) 4))
(constraint (= (next 0 1 6 0 true 39 ) 6))
(constraint (= (next 1 8 26 0 true 632 ) 4))

(check-synth)
